p cnf 672 38
16 0
128 0
144 0
32 0
144 0
160 0
272 0
384 0
496 0
512 0
528 0
512 0
400 0
384 0
496 0
608 0
592 0
576 0
464 0
352 0
464 0
576 0
592 0
608 0
624 0
512 0
624 0
608 0
496 0
384 0
272 0
160 0
176 0
192 0
80 0
96 0
208 0
-224 0
